tsp_instances/TSP20/instance6.tsp
NODE_COORD_SECTION
0 104 199
1 14 168
2 147 179
3 189 48
4 130 151
5 106 145
6 142 167
7 30 94
8 187 197
9 105 7
10 121 113
11 187 36
12 197 199
13 85 42
14 83 0
15 156 67
16 182 69
17 130 58
18 149 132
19 116 137
