tsp_instances/TSP20/instance6.opt.tour
TOUR_SECTION
1
2
8
14
15
10
18
16
12
4
17
19
11
20
6
5
7
3
9
13
-1